NAME : local_5
TYPE : ATSP
DIMENSION : 18
EDGE_WEIGHT_TYPE : EXPLICIT
EDGE_WEIGHT_FORMAT : FULL_MATRIX
EDGE_WEIGHT_SECTION
0 137 260 385 143 10000000 10000000 10000000 10000000 534 218 10000000 10000000 781 153 266 726 663 
0 0 151 364 128 10000000 10000000 10000000 10000000 427 202 10000000 10000000 714 189 247 726 689 
0 151 0 360 211 10000000 10000000 10000000 10000000 278 160 10000000 10000000 569 323 203 676 738 
0 364 360 0 253 10000000 10000000 10000000 10000000 501 355 10000000 10000000 679 338 236 406 399 
0 128 211 253 0 10000000 10000000 10000000 10000000 468 211 10000000 10000000 721 137 190 624 566 
0 10000000 10000000 10000000 10000000 0 442 625 549 10000000 10000000 531 154 10000000 10000000 10000000 10000000 10000000 
0 10000000 10000000 10000000 10000000 442 0 647 795 10000000 10000000 176 588 10000000 10000000 10000000 10000000 10000000 
0 10000000 10000000 10000000 10000000 625 647 0 422 10000000 10000000 629 706 10000000 10000000 10000000 803 1263 
0 10000000 10000000 10000000 10000000 549 795 422 0 10000000 10000000 856 532 10000000 10000000 10000000 10000000 10000000 
0 427 278 501 468 10000000 10000000 10000000 10000000 0 362 10000000 10000000 351 591 372 694 896 
0 202 160 355 211 10000000 10000000 10000000 10000000 362 0 10000000 10000000 566 328 128 618 717 
0 10000000 10000000 10000000 10000000 531 176 629 856 10000000 10000000 0 685 10000000 10000000 10000000 10000000 10000000 
0 10000000 10000000 10000000 10000000 154 588 706 532 10000000 10000000 685 0 10000000 10000000 10000000 10000000 10000000 
0 714 569 679 721 10000000 10000000 10000000 10000000 351 566 10000000 10000000 0 858 554 660 10000000 
0 189 323 338 137 10000000 10000000 10000000 10000000 591 328 10000000 10000000 858 0 324 720 559 
0 247 203 236 190 10000000 10000000 10000000 10000000 372 128 10000000 10000000 554 324 0 500 610 
0 726 676 406 624 10000000 10000000 803 10000000 694 618 10000000 10000000 660 720 500 0 520 
0 10000000 10000000 10000000 10000000 10000000 10000000 10000000 10000000 10000000 10000000 10000000 10000000 10000000 10000000 10000000 10000000 0 
EOF